50
    74    47    32    41    27    75    99    92     7    88    58    64    86    29    78    56    54    80    93    58    14    65     1    53    85    49    69    12     4    35    25    97    21    69    67    63     2    38    56    52    30    67    20   100     2    25    52    31    32    19
     1    10     8     5     6     7    10    10     1     4     7     2     3     2     3    10     1     3    10     7     8     3     2     8     4    10     1     1     4     3     9     4     4     3     9     1     8     4     2     2     5     4    10     7     6     9     3     1     8     1
  1296  1334  1545  1579  1483  1419  1729  1314  1342  1631  1722  1479  1721  1702  1493  1565  1590  1270  1413  1337  1419  1542  1275  1374  1323  1734  1551  1375  1453  1729  1425  1698  1640  1504  1532  1669  1283  1298  1500  1614  1482  1534  1697  1663  1442  1503  1261  1301  1605  1270
